p cnf 10 44
 10 -1 5 0
 -1 -4 -3 0
 -5 -4 6 0
 -2 -1 4 0
 10 -8 -7 0
 9 2 -6 0
 -1 -2 -6 0
 6 5 -10 0
 8 -9 -5 0
 -8 2 -3 0
 -4 1 -5 0
 -7 5 3 0
 10 3 -5 0
 8 9 -6 0
 4 -6 9 0
 10 -8 4 0
 -1 10 -8 0
 -1 8 -10 0
 -7 6 -1 0
 -6 -10 9 0
 9 -7 -3 0
 -4 -3 -6 0
 -6 -7 2 0
 -1 -6 -9 0
 -6 -3 -4 0
 -8 -2 6 0
 -2 -8 4 0
 -3 -8 10 0
 3 -2 6 0
 -10 7 -2 0
 -8 10 5 0
 7 3 6 0
 7 4 5 0
 9 -3 -7 0
 2 8 -7 0
 5 -9 3 0
 2 -1 -8 0
 9 6 -8 0
 5 -3 -8 0
 2 1 -10 0
 -10 9 2 0
 -4 9 -3 0
 3 1 -6 0
 -5 -7 -6 0
c 1 a_1
c 2 a_2
c 3 a_3
c 4 a_4
c 5 a_5
c 6 a_6
c 7 a_7
c 8 a_8
c 9 a_9
c 10 a_10
